src/asp/benchmarks/small8.lp
citta(foligno).
citta(gubbio).
citta(marsciano).

richiesta(foligno, strade, 55).
richiesta(foligno, fiumi, 40).
richiesta(foligno, scuole, 34).
richiesta(foligno, parchi, 94).
richiesta(foligno, energia, 96).

richiesta(gubbio, strade, 26).
richiesta(gubbio, fiumi, 16).
richiesta(gubbio, scuole, 121).
richiesta(gubbio, parchi, 134).
richiesta(gubbio, energia, 98).

richiesta(marsciano, strade, 21).
richiesta(marsciano, fiumi, 16).
richiesta(marsciano, scuole, 14).
richiesta(marsciano, parchi, 156).
richiesta(marsciano, energia, 69).

